//Função objetivo
min: M;

//Restrições
x-2 <= a;
-x+2 <= a;
y-8 <= b;
-y+8 <= b;
x-10 <= c;
-x+10 <= c;
y-7 <= d;
-y+7 <= d;
x-1 <= e;
-x+1 <= e;
y-3 <= f;
-y+3 <= f;
x-6 <= g;
-x+6 <= g;
y-4 <= h;
-y+4 <= h;
x-1 <= i;
-x+1 <= i;
y-7 <= j;
-y+7 <= j;
M >= a+b;
M >= c+d;
M >= e+f;
M >= g+h;
M >= i+j;